30
2
20165
189 51
false
0.25
31 32 9 6 20 43 7 6 24 12 5 31 36 7 23 47 18 17 27 19 46 18 18 44 21 4 15 5 42 26
14 31 18 48 21 10 43 25 32 26 21 37 9 22 12 36 46 29 29 1 18 18 1 22 23 31 31 24 6 25
3 51 28 57 14 18 68 77 15 45 25 60 62 27 87 68 19 36 96 3 31 11 43 24 22 29 40 70 11 37
0 0 59 0 0 67 0 0 0 0 0 22 0 0 35 0 0 0 0 6 0 0 0 0 0 12 0 0 0 100
0 0 95 11 0 0 0 0 86 78 95 0 0 0 0 74 95 0 36 0 0 0 0 0 9 0 0 87 27
0 0 28 0 13 46 45 0 0 0 3 4 0 96 0 64 81 0 0 0 0 70 0 60 0 0 0 86
0 0 7 19 90 69 0 40 0 81 0 47 0 75 0 0 0 0 0 0 0 0 99 0 54 5 0
0 0 30 0 43 26 0 82 0 0 0 47 0 0 0 0 0 0 0 6 10 37 0 28 0 0
0 0 0 0 71 42 0 0 0 0 0 0 87 0 0 0 0 46 0 0 0 0 37 0 0
0 0 0 0 0 0 35 0 88 0 0 0 0 77 0 94 0 0 34 0 0 57 0 0
0 0 0 0 50 0 29 0 0 0 0 11 0 96 69 0 0 0 66 0 0 0 97
0 39 0 0 0 0 100 0 0 88 0 0 0 0 0 0 32 0 0 0 0 0
0 33 0 0 0 0 0 0 0 0 0 0 0 0 79 0 0 0 0 38 0
0 0 0 0 73 0 0 54 0 29 0 0 33 0 98 0 0 0 38 0
0 0 0 0 0 0 0 0 0 0 0 0 0 0 60 0 0 0 15
0 92 0 0 65 0 0 0 0 0 0 20 0 0 0 0 50 42
0 56 0 26 33 20 0 42 0 37 0 78 0 0 0 2 0
0 57 0 35 0 0 36 7 33 57 85 2 0 14 35 0
0 0 0 0 86 0 68 0 36 70 0 53 0 0 82
0 51 0 3 0 0 0 65 0 0 0 0 12 0
0 0 0 0 0 0 0 0 0 0 65 0 0
0 0 0 84 0 0 0 46 35 0 0 89
0 45 78 0 0 0 0 66 70 0 47
0 11 0 3 0 37 0 0 0 0
0 70 0 0 0 85 0 32 0
0 0 0 32 0 0 0 0
0 0 0 0 0 0 0
0 0 51 0 63 0
0 0 0 0 0
0 0 0 0
0 0 0
0 0
0 0 0 0 0 42 0 2 0 64 0 0 20 0 0 0 97 0 0 0 0 0 0 0 0 0 22 0 0
0 0 0 0 0 0 35 0 0 0 0 61 23 0 0 0 0 0 0 0 0 0 0 0 96 0 0 0
0 0 0 0 0 0 36 0 31 0 0 0 0 64 0 0 0 33 0 37 0 0 0 0 0 38 12
0 46 0 0 0 0 0 0 0 0 0 0 0 0 88 0 0 62 0 0 83 0 0 0 23 46
0 0 0 0 0 0 0 0 38 99 63 0 0 0 0 0 0 55 0 0 0 0 0 0 0
0 21 0 0 0 0 53 0 0 0 0 0 0 83 0 0 79 0 0 0 0 44 0 0
0 83 45 0 0 0 0 0 0 0 0 0 0 0 5 56 0 0 0 0 0 0 0
0 0 0 95 0 0 54 0 81 0 0 0 70 0 0 0 0 0 0 0 0 0
0 0 0 0 0 0 0 0 4 0 0 71 0 0 0 93 0 0 0 0 0
0 0 0 0 0 0 0 0 0 0 0 0 0 0 68 39 0 20 0 0
0 0 31 0 89 42 0 0 0 0 0 51 0 0 0 0 0 0 0
0 0 0 0 0 59 0 21 41 37 0 9 0 0 39 0 44 0
0 0 0 97 83 37 47 0 61 0 0 41 0 0 0 0 0
0 35 0 51 34 0 0 0 0 0 20 0 14 46 0 40
0 0 11 0 0 91 0 0 0 0 0 82 0 0 0
0 0 0 0 0 0 0 0 0 0 0 3 81 0
0 0 0 0 0 45 8 0 0 3 0 71 0
0 97 6 0 0 32 9 0 0 0 0 0
0 77 86 0 0 0 5 5 0 0 66
0 0 0 13 49 0 0 0 0 0
0 0 0 0 0 0 0 0 21
0 0 0 0 38 0 0 80
0 0 0 16 0 0 0
0 0 72 0 0 13
0 0 0 0 0
0 0 10 0
0 0 0
0 0
0
0 0 0 92 0 0 0 0 0 0 0 84 0 49 0 0 71 0 0 9 0 40 0 0 0 0 0 0
0 0 0 0 0 0 0 0 0 0 74 0 0 93 20 0 0 0 0 75 0 3 0 0 0 0 44
0 0 81 0 86 0 0 85 0 0 0 22 0 0 0 0 0 0 0 0 15 0 42 0 0 17
0 0 0 0 0 0 90 88 93 0 0 0 0 0 0 31 45 0 0 0 0 0 70 0 0
0 0 0 97 96 0 0 0 2 0 0 85 0 0 42 94 0 0 0 0 0 0 0 26
0 0 0 0 0 69 0 0 0 0 0 0 0 0 0 0 0 0 0 64 0 0 0
0 25 0 0 0 98 0 0 98 0 0 0 0 60 0 0 84 0 0 0 10 69
0 0 0 0 0 0 12 0 77 0 0 0 0 0 0 85 0 0 98 52 70
0 0 49 49 0 0 15 0 96 71 0 0 0 0 0 0 0 0 0 0
0 65 0 47 0 0 0 0 0 0 0 0 0 0 0 0 55 0 47
0 0 0 0 0 0 0 89 0 38 0 0 0 0 0 0 0 37
0 0 0 0 0 43 0 7 0 0 0 0 0 0 0 65 0
0 0 35 75 0 3 0 0 0 0 0 0 0 0 0 0
0 0 0 82 15 0 0 0 0 70 0 0 0 0 0
0 0 0 0 36 79 0 0 0 74 0 0 0 79
0 63 0 0 0 0 0 0 0 0 17 78 0
0 0 0 0 0 0 66 0 0 0 68 0
0 12 50 0 0 25 0 51 0 0 0
0 0 0 0 0 0 0 0 0 0
0 0 24 0 0 100 0 0 86
0 0 47 0 0 0 0 62
0 0 0 0 57 65 0
0 0 78 90 0 0
0 0 0 81 0
0 0 0 0
0 23 0
0 0
0
0 0 0 0 6 0 0 0 67 13 61 0 28 0 0 0 37 0 0 65 0 0 0 0 0 0 0
0 0 0 25 0 96 62 0 0 0 0 0 0 69 6 0 67 0 34 0 0 28 0 0 72 0
0 0 2 20 0 65 0 0 0 0 0 26 0 0 0 0 0 0 0 0 0 26 0 0 0
0 0 37 43 99 0 0 7 0 0 0 30 0 0 0 0 21 0 5 0 48 0 0 0
0 0 0 0 52 0 0 0 32 0 36 0 0 81 0 0 0 0 0 30 0 0 0
0 0 0 0 0 0 0 85 0 0 0 0 0 0 0 0 0 0 0 32 0 0
0 47 0 0 0 0 0 0 0 58 0 0 0 0 0 0 0 0 0 70 36
0 0 0 44 0 0 0 0 30 0 0 0 0 8 0 0 0 0 0 24
0 0 0 0 0 0 0 0 60 58 45 0 75 0 85 0 0 95 75
0 0 0 0 0 0 0 0 0 0 0 0 0 0 0 98 59 0
0 0 0 45 50 0 48 0 0 36 0 0 0 0 0 3 0
0 0 0 97 0 0 0 0 0 71 47 11 0 0 0 0
0 0 72 0 0 76 0 0 27 0 0 0 0 58 0
0 0 0 43 0 0 81 0 0 0 0 0 0 97
0 0 37 0 0 0 0 0 0 0 23 94 77
0 0 42 0 88 80 0 0 24 0 0 18
0 0 95 0 0 0 0 0 0 0 0
0 0 0 0 0 85 0 0 0 0
0 0 0 0 0 0 56 0 0
0 0 87 0 0 0 0 19
0 93 0 0 0 0 0
0 94 11 0 0 0
0 95 0 0 0
0 61 93 0
0 0 0
0 44
0
0 0 0 0 0 0 0 1 0 0 0 0 0 37 0 0 0 0 0 22 0 11 35 82 1 0
0 0 0 50 0 0 0 0 66 73 4 0 5 0 0 0 0 71 57 0 0 0 1 50 0
0 0 0 0 0 63 0 64 12 0 0 0 2 0 0 0 0 0 0 0 0 0 0 0
0 0 0 0 0 0 56 0 0 67 0 0 0 0 0 0 71 0 0 0 65 71 0
0 0 0 0 45 0 0 0 0 0 0 0 0 0 0 0 0 0 42 0 0 0
0 0 0 19 0 0 0 0 0 0 0 0 0 0 0 98 0 0 0 0 0
0 0 81 0 0 0 0 0 0 0 0 0 23 0 0 0 88 0 0 0
0 0 0 98 0 0 3 0 0 0 0 0 0 0 0 0 87 0 0
0 70 8 0 0 0 0 0 0 38 0 55 97 0 90 0 62 0
0 0 0 0 73 0 0 39 82 0 0 0 0 69 0 0 0
0 80 0 11 49 0 0 0 81 55 0 0 0 0 0 0
0 0 0 0 0 0 6 0 0 0 0 0 36 0 49
0 0 33 0 0 0 54 0 0 0 0 0 83 0
0 0 15 0 0 0 0 0 0 0 0 71 0
0 59 0 27 0 30 0 0 0 100 0 0
0 36 48 0 0 0 0 26 7 0 0
0 0 28 20 0 0 4 0 0 0
0 57 0 0 0 0 100 0 0
0 0 0 0 13 0 0 0
0 0 0 0 11 0 0
0 0 0 0 0 83
0 0 0 0 0
0 0 0 0
0 67 26
0 0
0
0 0 0 99 0 0 0 19 0 0 0 0 0 0 58 15 0 18 0 0 0 0 0 0 0
0 0 17 0 0 0 21 10 0 0 0 53 0 0 0 0 0 0 0 29 0 0 0 0
0 0 0 0 0 0 0 0 0 97 0 9 79 0 0 0 0 0 0 0 0 0 0
0 0 0 0 99 0 0 0 0 0 0 16 0 0 42 0 0 0 51 0 0 9
0 0 0 0 0 51 0 0 0 89 74 41 0 0 0 0 0 0 0 62 11
0 64 0 0 0 9 0 0 0 0 0 0 0 29 65 6 0 4 0 8
0 89 0 67 43 0 0 97 0 20 0 0 0 10 0 0 0 0 0
0 58 0 0 0 23 16 6 0 0 0 0 0 0 98 0 0 0
0 54 0 19 0 0 0 0 91 0 0 0 86 0 44 0 75
0 0 0 61 0 0 0 0 0 0 0 0 0 82 0 0
0 0 0 80 0 0 0 0 75 0 0 39 0 19 0
0 0 0 0 69 82 0 63 0 0 0 0 0 0
0 65 0 0 0 0 100 0 18 0 0 0 0
0 0 0 0 1 10 0 0 0 0 0 0
0 0 99 0 11 77 0 0 0 0 0
0 0 18 53 0 0 0 0 0 0
0 33 0 20 23 24 0 0 8
0 0 75 62 0 0 0 0
0 0 0 0 0 0 0
0 0 17 0 0 0
0 0 20 0 0
0 0 0 0
0 0 0
0 0
0
0 96 47 99 0 0 0 8 30 0 0 0 0 0 27 3 0 0 0 0 0 0 0 0
0 0 0 0 0 0 73 0 97 0 0 0 0 0 85 0 0 0 0 0 56 0 0
0 0 0 0 0 0 0 0 0 0 76 0 0 0 0 71 0 0 0 88 0 0
0 0 0 0 0 0 0 0 0 0 0 5 0 0 0 0 0 35 0 0 0
0 0 0 0 93 0 0 94 0 0 0 0 45 0 0 0 0 81 0 0
0 0 85 15 0 0 2 0 0 0 0 0 19 0 64 41 0 0 0
0 0 0 78 80 0 0 0 0 0 0 0 0 64 89 0 90 0
0 0 54 0 3 0 0 0 0 1 0 0 0 0 0 0 97
0 0 0 0 0 0 20 20 0 0 0 0 0 0 92 0
0 0 0 0 0 0 0 0 0 21 0 0 0 49 0
0 0 0 53 0 0 0 0 0 0 60 0 0 95
0 0 0 0 0 0 0 0 24 0 0 0 0
0 0 13 0 34 0 0 0 49 0 0 0
0 0 0 0 0 0 0 0 0 0 0
0 0 70 26 5 0 0 0 0 0
0 0 0 0 0 74 0 0 0
0 0 74 61 0 0 0 0
0 11 0 0 0 15 84
0 0 50 60 4 0
0 0 0 0 0
0 0 83 0
0 0 0
0 63
0
0 0 70 0 100 0 0 20 0 0 0 0 56 92 0 0 91 0 1 0 10 0 0
0 0 0 0 0 0 0 0 0 0 0 0 72 0 0 0 0 80 0 20 0 0
0 0 0 12 0 0 0 90 0 0 0 0 0 0 0 0 18 0 0 0 0
0 0 41 74 0 0 0 51 0 0 0 11 79 0 0 0 0 0 0 0
0 0 63 44 0 0 24 50 0 25 0 0 57 29 63 0 0 9 0
0 0 0 0 0 0 0 84 0 84 0 3 0 0 0 0 37 0
0 11 0 0 0 0 0 88 8 0 0 12 0 8 0 0 0
0 0 10 0 0 0 0 15 0 100 0 0 0 0 0 0
0 0 0 0 0 0 0 49 0 0 0 0 0 0 0
0 0 0 0 0 0 0 0 37 0 0 0 0 0
0 0 0 0 0 0 38 0 20 0 0 0 3
0 16 93 47 0 0 97 78 0 0 69 0
0 0 0 26 0 0 0 0 0 0 0
0 0 0 0 0 0 89 0 0 24
0 0 0 0 0 0 0 0 0
0 34 0 0 0 19 0 0
0 0 0 0 0 0 0
0 0 0 0 22 0
0 0 52 83 0
0 0 0 0
0 0 0
0 0
0
0 0 0 0 0 0 0 45 0 29 0 0 0 0 0 0 14 0 0 10 0 31
0 0 0 0 0 0 0 54 0 0 92 96 83 67 0 0 0 0 0 0 40
0 0 0 98 0 0 0 0 0 0 0 0 0 0 0 45 0 0 0 0
0 0 0 0 66 0 100 33 0 0 0 0 0 0 0 0 49 0 0
0 0 0 0 0 0 0 0 0 0 0 0 0 0 0 0 3 62
0 0 90 33 0 13 0 0 35 15 0 19 30 35 0 66 0
0 0 83 0 0 0 0 0 0 0 54 0 0 0 22 98
0 0 0 14 44 0 45 0 10 0 0 0 23 0 0
0 0 0 0 0 0 0 23 21 28 0 0 0 0
0 60 75 88 77 0 0 0 0 0 0 6 0
0 0 0 17 0 0 0 0 0 0 0 0
0 0 0 0 0 0 0 0 61 0 25
0 99 0 70 0 0 25 40 0 0
0 0 0 0 72 87 0 0 0
0 0 0 52 0 0 0 0
0 18 0 0 0 0 0
0 0 0 0 0 0
0 0 0 0 0
0 0 35 0
0 0 13
0 0
0
0 0 0 0 0 0 0 0 0 0 0 48 0 0 86 10 0 0 0 4 0
0 26 0 0 93 19 0 0 0 0 50 0 0 0 0 0 0 46 0 0
0 50 0 64 0 0 0 0 0 0 0 0 0 0 0 38 0 16 0
0 0 94 0 0 0 0 0 0 0 0 0 0 0 0 0 0 0
0 99 0 0 0 0 0 0 0 54 0 45 0 0 58 0 17
0 0 0 0 47 0 0 0 2 0 0 0 0 12 0 0
0 0 0 0 0 0 33 0 0 0 0 8 0 0 0
0 0 0 70 71 0 0 0 0 0 0 0 0 0
0 0 66 72 67 10 0 90 0 0 30 0 0
0 0 0 0 0 0 0 0 89 0 0 4
0 0 0 0 0 0 97 0 0 0 0
0 89 0 0 0 0 67 3 25 5
0 7 0 69 72 0 0 0 0
0 0 66 0 0 0 0 17
0 0 0 7 0 78 0
0 93 0 0 0 0
0 0 0 0 0
0 0 10 0
0 0 0
0 0
0
0 0 0 95 58 0 0 0 0 0 0 0 0 0 0 0 0 0 0 0
0 0 0 65 0 0 0 0 0 0 0 0 0 22 12 65 0 26 97
0 0 0 0 0 44 99 76 0 0 0 0 0 0 20 0 0 0
0 0 40 0 8 0 0 0 16 0 31 0 0 76 40 38 0
0 0 0 52 42 0 75 0 92 77 0 99 0 0 0 0
0 0 0 0 0 50 0 97 0 0 26 0 0 0 16
0 0 0 0 90 92 77 0 88 0 76 0 0 68
0 0 0 0 0 0 50 0 0 50 0 66 0
0 0 12 63 0 71 0 0 0 0 0 0
0 29 0 0 0 0 0 0 0 0 71
0 0 61 0 1 0 0 0 0 0
0 31 0 0 23 0 0 21 0
0 0 0 0 0 0 0 0
0 0 0 0 0 0 0
0 0 0 0 0 0
0 0 0 27 0
0 22 0 0
0 0 0
0 0
0
0 0 0 0 0 0 2 75 0 96 0 0 0 0 0 72 0 0 0
0 0 42 0 0 0 95 0 0 0 0 0 0 0 0 80 0 41
0 87 76 0 43 54 0 0 0 0 0 0 0 82 0 99 0
0 0 0 0 0 0 0 0 0 15 0 0 0 0 0 28
0 0 0 0 0 0 11 0 0 0 47 0 0 0 0
0 0 0 0 0 0 0 65 0 0 0 79 0 0
0 50 100 0 0 0 38 47 0 86 0 0 0
0 0 0 0 0 0 0 0 0 0 0 0
0 0 0 0 91 0 0 0 0 0 0
0 16 0 0 0 5 0 86 50 0
0 0 84 0 0 0 89 0 94
0 0 0 0 52 0 0 0
0 91 87 31 68 65 0
0 33 0 0 24 0
0 0 0 0 74
0 0 0 0
0 0 0
0 0
0
0 0 27 51 0 0 60 0 0 26 0 0 0 69 0 0 0 42
0 0 0 85 0 0 81 42 0 13 0 0 0 0 0 0 0
0 0 0 0 0 86 0 0 0 0 11 0 0 0 45 0
0 63 0 0 5 0 54 0 93 75 0 0 0 97 0
0 59 0 0 58 85 3 37 0 0 67 0 0 0
0 0 0 95 61 89 0 0 0 0 40 25 0
0 0 0 0 0 0 0 0 0 0 0 0
0 0 47 0 53 0 0 0 0 0 0
0 24 98 0 0 36 0 0 0 0
0 0 0 1 75 0 0 0 0
0 0 0 0 0 0 0 0
0 0 0 23 0 0 0
0 2 72 0 0 0
0 0 0 0 0
0 53 17 0
0 87 0
0 11
0
0 0 0 0 45 0 0 0 0 0 0 3 0 0 0 0 0
0 18 0 0 0 0 0 0 0 0 0 0 0 2 0 14
0 33 0 0 0 0 0 0 16 0 0 0 0 0 50
0 0 0 0 0 0 0 0 0 25 94 0 51 61
0 0 0 0 0 0 0 0 0 0 0 0 0
0 74 0 0 0 0 0 0 0 0 65 0
0 0 0 58 0 0 0 49 0 0 0
0 98 0 0 0 0 0 0 23 86
0 0 0 0 0 31 37 0 0
0 0 97 31 0 0 0 41
0 60 0 0 0 0 0
0 0 7 0 17 0
0 0 0 0 0
0 0 0 86
0 0 0
0 0
0
0 77 0 0 0 0 0 0 0 0 0 0 0 0 0 0
0 0 68 0 0 0 8 6 0 0 10 82 0 0 0
0 8 0 17 0 0 0 0 0 0 0 0 0 56
0 0 0 0 0 0 36 0 98 0 0 56 0
0 0 37 58 0 0 84 0 0 0 0 0
0 0 0 0 0 0 0 0 0 0 0
0 0 0 96 0 0 0 0 65 0
0 0 0 0 0 0 0 0 0
0 92 0 0 54 0 0 0
0 0 18 0 64 0 87
0 67 0 89 0 0
0 0 0 0 62
0 23 0 0
0 0 0
0 0
0
0 0 0 0 15 0 0 20 0 44 0 42 0 0 0
0 17 0 0 3 0 0 0 33 81 0 0 3 0
0 0 0 0 0 0 0 0 0 0 0 0 0
0 0 24 0 55 0 25 0 0 0 0 0
0 0 12 0 53 85 0 0 0 0 0
0 0 0 0 0 0 43 0 0 0
0 0 0 0 92 0 24 0 0
0 57 94 0 29 0 68 0
0 58 0 97 0 0 0
0 0 0 0 0 0
0 5 0 60 0
0 0 0 76
0 0 9
0 0
0
0 53 0 0 0 74 0 62 0 0 7 0 99 0
0 0 0 0 28 4 0 0 77 0 0 0 0
0 70 77 85 0 0 2 0 0 0 21 0
0 0 0 0 34 0 0 0 0 92 4
0 0 49 0 0 0 0 66 0 0
0 0 70 0 0 0 21 46 0
0 0 0 0 0 7 0 45
0 0 0 0 0 1 18
0 0 55 0 0 0
0 0 0 0 0
0 0 0 0
0 0 0
0 44
0
0 0 0 0 67 79 0 0 5 0 0 0 0
0 0 0 0 0 0 0 0 0 0 0 0
0 34 0 9 0 0 0 34 0 15 70
0 0 97 0 0 0 0 0 0 74
0 0 22 0 0 0 0 0 0
0 0 90 75 0 0 80 0
0 0 0 0 0 0 0
0 0 0 0 0 0
0 0 0 0 0
0 0 71 0
0 0 17
0 0
0
0 0 0 0 0 7 0 0 38 0 0 0
0 52 0 0 10 0 0 0 0 0 22
0 63 0 0 52 16 0 0 26 26
0 0 0 0 0 0 0 0 24
0 0 0 0 0 0 0 0
0 0 0 0 0 0 29
0 48 22 0 23 0
0 14 0 0 0
0 0 81 0
0 13 0
0 0
0
0 0 0 0 0 0 0 0 99 15 0
0 0 35 67 0 0 0 0 0 0
0 0 0 0 0 0 0 0 0
0 0 0 0 3 0 0 0
0 0 0 0 0 94 53
0 0 0 6 0 0
0 47 0 0 0
0 27 43 0
0 0 0
0 0
0
0 0 9 0 0 48 0 0 26 0
0 0 25 0 0 0 0 11 0
0 99 0 0 0 0 0 0
0 0 66 0 0 47 0
0 0 0 0 0 30
0 20 8 0 24
0 0 0 0
0 0 37
0 0
0
0 0 76 0 0 0 0 0 0
0 0 35 71 0 0 0 49
0 0 0 0 0 0 0
0 0 0 0 0 49
0 0 0 0 40
0 75 0 0
0 0 0
0 0
0
0 0 0 0 46 0 0 0
0 0 0 0 17 49 0
0 0 0 0 0 0
0 0 0 0 0
0 0 0 0
0 0 0
0 0
0
0 0 0 0 0 0 0
0 0 0 43 0 24
0 87 6 40 0
0 0 0 0
0 66 0
0 0
0
0 0 0 0 0 76
0 46 0 0 0
0 0 0 0
0 0 0
0 0
0
0 0 0 0 0
0 0 0 58
0 0 0
0 0
0
0 0 51 42
0 53 0
0 0
0
0 0 0
0 0
0
0 70
0
0
4843 6287 5901 5244 5160 5111 4939 5338 4901 5529 5515 6273 5267 6489 5807 5348 5642 5816 4998 5057 5740 5596 5171 5253 5197 4486 5452 4196 5320 4869
251.07718894009219 199.63760080645162 491.75 491.625 251.85714285714286 314.98023255813956 410.2159468438538 551.5933333333334 178.68229166666669 336.7019230769231 682.8095238095239 185.94768962510898 365.76388888888886 610.9772727272727 368.19746376811594 131.17139479905438 218.04830917874398 271.3346855983773 178.727969348659 2661.578947368421 221.83574879227055 310.8888888888889 2729.1388888888887 179.07954545454547 236.71635610766046 633.1048387096774 269.66881720430104 507.0166666666667 506.66666666666663 191.01461538461538
